34 1000
993998101 900353849 39739249 846966422 892041448 333781349 199397100 612654101 642149110 187689506 270172841 788582623 801216054 567032949 826782466 401087275 689331846 793353959 292595575 103258868 535257382 526829572 838011688 417326713 871839545 819725023 961529181 781583037 844840008 422194061 526928895 210299399 699030206 671911845
-372107565 922604113 773305629 -41004247 445199456 354546563 -413382703 813602954 47163434 402675642 62258907 808968498 -472549797 -300009625 910816100 -958240330 -517682650 817729454 446475486 616561036 781868698 737261504 -168316157 612236929 -582834368 511689695 -633063902 -594009250 -750283379 681452600 437081606 -54411777 409088248 335540916
